words_hard_train/40.qaiger
aag 147 19 0 1 128
2
4
12
14
22
24
36
70
88
106
122
130
152
160
174
190
206
222
238
295
6 3 5
8 2 4
10 7 9
16 12 14
18 10 16
20 19 9
26 23 25
28 22 24
30 27 29
32 21 30
34 33 29
38 37 25
40 36 24
42 39 41
44 34 43
46 35 42
48 45 47
50 11 17
52 51 19
54 13 15
56 55 17
58 53 57
60 20 31
62 61 33
64 58 63
66 49 64
68 47 41
72 71 25
74 70 24
76 73 75
78 68 77
80 69 76
82 79 81
84 66 83
86 81 75
90 89 25
92 88 24
94 91 93
96 86 95
98 87 94
100 97 99
102 84 101
104 99 93
108 106 24
110 107 25
112 109 111
114 105 112
116 104 113
118 115 117
120 102 119
124 120 123
126 121 122
128 125 127
132 130 24
134 131 25
136 133 135
138 115 109
140 136 139
142 137 138
144 141 143
146 128 145
148 129 144
150 147 149
154 56 152
156 56 10
158 157 59
162 158 160
164 155 163
166 159 161
168 165 167
170 59 62
172 171 65
176 173 175
178 172 174
180 177 179
182 168 180
184 183 179
186 48 65
188 187 67
192 189 191
194 188 190
196 193 195
198 185 196
200 199 195
202 67 82
204 203 85
208 205 207
210 204 206
212 209 211
214 201 212
216 215 211
218 85 100
220 219 103
224 221 223
226 220 222
228 225 227
230 217 228
232 231 227
234 103 118
236 235 121
240 237 239
242 236 238
244 241 243
246 233 244
248 247 243
250 151 249
252 150 248
254 251 253
256 200 213
258 257 215
260 57 153
262 259 261
264 184 197
266 265 199
268 169 181
270 269 183
272 267 271
274 163 167
276 272 275
278 276 155
280 216 229
282 281 231
284 278 283
286 232 245
288 287 247
290 284 289
292 262 290
294 255 292
i0 1 x2[1]
i1 1 x1[6]
i2 1 x2[0]
i3 1 x1[5]
i4 1 x2[2]
i5 1 x1[7]
i6 1 x2[3]
i7 1 x2[4]
i8 1 x2[5]
i9 1 x2[6]
i10 2 y2[7]
i11 1 x2[7]
i12 2 y2[0]
i13 2 y2[1]
i14 2 y2[2]
i15 2 y2[3]
i16 2 y2[4]
i17 2 y2[5]
i18 2 y2[6]
o0 bool[0]
c
simplified
  !=
    1
    subtract
      2 y2
      add
        1 x2
        >> 5
          1 x1
