words_hard_train/40.qaiger.qdimacs
p cnf 147 385
a 1 2 35 65 6 7 11 12 44 18 53 0
e 3 4 5 8 9 10 13 14 15 16 17 19 20 21 22 23 24 25 26 27 28 29 30 31 32 33 34 36 37 38 39 40 41 42 43 45 46 47 48 49 50 51 52 54 55 56 57 58 59 60 61 62 63 64 66 67 68 69 70 71 72 73 74 75 76 77 78 79 80 81 82 83 84 85 86 87 88 89 90 91 92 93 94 95 96 97 98 99 100 101 102 103 104 105 106 107 108 109 110 111 112 113 114 115 116 117 118 119 120 121 122 123 124 125 126 127 128 129 130 131 132 133 134 135 136 137 138 139 140 141 142 143 144 145 146 147 0
1 2 3 0
-1 -3 0
-2 -3 0
-1 -2 4 0
1 -4 0
2 -4 0
3 4 5 0
-3 -5 0
-4 -5 0
-6 -7 8 0
6 -8 0
7 -8 0
-5 -8 9 0
5 -9 0
8 -9 0
9 4 10 0
-9 -10 0
-4 -10 0
11 12 13 0
-11 -13 0
-12 -13 0
-11 -12 14 0
11 -14 0
12 -14 0
13 14 15 0
-13 -15 0
-14 -15 0
10 -15 16 0
-10 -16 0
15 -16 0
16 14 17 0
-16 -17 0
-14 -17 0
18 12 19 0
-18 -19 0
-12 -19 0
-18 -12 20 0
18 -20 0
12 -20 0
19 20 21 0
-19 -21 0
-20 -21 0
-17 21 22 0
17 -22 0
-21 -22 0
17 -21 23 0
-17 -23 0
21 -23 0
22 23 24 0
-22 -24 0
-23 -24 0
5 8 25 0
-5 -25 0
-8 -25 0
25 9 26 0
-25 -26 0
-9 -26 0
6 7 27 0
-6 -27 0
-7 -27 0
27 8 28 0
-27 -28 0
-8 -28 0
26 28 29 0
-26 -29 0
-28 -29 0
-10 15 30 0
10 -30 0
-15 -30 0
30 16 31 0
-30 -31 0
-16 -31 0
-29 31 32 0
29 -32 0
-31 -32 0
24 -32 33 0
-24 -33 0
32 -33 0
23 20 34 0
-23 -34 0
-20 -34 0
35 12 36 0
-35 -36 0
-12 -36 0
-35 -12 37 0
35 -37 0
12 -37 0
36 37 38 0
-36 -38 0
-37 -38 0
-34 38 39 0
34 -39 0
-38 -39 0
34 -38 40 0
-34 -40 0
38 -40 0
39 40 41 0
-39 -41 0
-40 -41 0
-33 41 42 0
33 -42 0
-41 -42 0
40 37 43 0
-40 -43 0
-37 -43 0
44 12 45 0
-44 -45 0
-12 -45 0
-44 -12 46 0
44 -46 0
12 -46 0
45 46 47 0
-45 -47 0
-46 -47 0
-43 47 48 0
43 -48 0
-47 -48 0
43 -47 49 0
-43 -49 0
47 -49 0
48 49 50 0
-48 -50 0
-49 -50 0
-42 50 51 0
42 -51 0
-50 -51 0
49 46 52 0
-49 -52 0
-46 -52 0
-53 -12 54 0
53 -54 0
12 -54 0
53 12 55 0
-53 -55 0
-12 -55 0
54 55 56 0
-54 -56 0
-55 -56 0
52 -56 57 0
-52 -57 0
56 -57 0
-52 56 58 0
52 -58 0
-56 -58 0
57 58 59 0
-57 -59 0
-58 -59 0
-51 59 60 0
51 -60 0
-59 -60 0
-60 61 62 0
60 -62 0
-61 -62 0
60 -61 63 0
-60 -63 0
61 -63 0
62 63 64 0
-62 -64 0
-63 -64 0
-65 -12 66 0
65 -66 0
12 -66 0
65 12 67 0
-65 -67 0
-12 -67 0
66 67 68 0
-66 -68 0
-67 -68 0
57 54 69 0
-57 -69 0
-54 -69 0
-68 69 70 0
68 -70 0
-69 -70 0
68 -69 71 0
-68 -71 0
69 -71 0
70 71 72 0
-70 -72 0
-71 -72 0
-64 72 73 0
64 -73 0
-72 -73 0
64 -72 74 0
-64 -74 0
72 -74 0
73 74 75 0
-73 -75 0
-74 -75 0
-28 -76 77 0
28 -77 0
76 -77 0
-28 -5 78 0
28 -78 0
5 -78 0
78 29 79 0
-78 -79 0
-29 -79 0
-79 -80 81 0
79 -81 0
80 -81 0
77 81 82 0
-77 -82 0
-81 -82 0
79 80 83 0
-79 -83 0
-80 -83 0
82 83 84 0
-82 -84 0
-83 -84 0
29 -31 85 0
-29 -85 0
31 -85 0
85 32 86 0
-85 -86 0
-32 -86 0
86 87 88 0
-86 -88 0
-87 -88 0
-86 -87 89 0
86 -89 0
87 -89 0
88 89 90 0
-88 -90 0
-89 -90 0
-84 -90 91 0
84 -91 0
90 -91 0
91 89 92 0
-91 -92 0
-89 -92 0
-24 32 93 0
24 -93 0
-32 -93 0
93 33 94 0
-93 -94 0
-33 -94 0
94 95 96 0
-94 -96 0
-95 -96 0
-94 -95 97 0
94 -97 0
95 -97 0
96 97 98 0
-96 -98 0
-97 -98 0
92 -98 99 0
-92 -99 0
98 -99 0
99 97 100 0
-99 -100 0
-97 -100 0
33 -41 101 0
-33 -101 0
41 -101 0
101 42 102 0
-101 -102 0
-42 -102 0
102 103 104 0
-102 -104 0
-103 -104 0
-102 -103 105 0
102 -105 0
103 -105 0
104 105 106 0
-104 -106 0
-105 -106 0
100 -106 107 0
-100 -107 0
106 -107 0
107 105 108 0
-107 -108 0
-105 -108 0
42 -50 109 0
-42 -109 0
50 -109 0
109 51 110 0
-109 -110 0
-51 -110 0
110 111 112 0
-110 -112 0
-111 -112 0
-110 -111 113 0
110 -113 0
111 -113 0
112 113 114 0
-112 -114 0
-113 -114 0
108 -114 115 0
-108 -115 0
114 -115 0
115 113 116 0
-115 -116 0
-113 -116 0
51 -59 117 0
-51 -117 0
59 -117 0
117 60 118 0
-117 -118 0
-60 -118 0
118 119 120 0
-118 -120 0
-119 -120 0
-118 -119 121 0
118 -121 0
119 -121 0
120 121 122 0
-120 -122 0
-121 -122 0
116 -122 123 0
-116 -123 0
122 -123 0
123 121 124 0
-123 -124 0
-121 -124 0
75 124 125 0
-75 -125 0
-124 -125 0
-75 -124 126 0
75 -126 0
124 -126 0
125 126 127 0
-125 -127 0
-126 -127 0
-100 106 128 0
100 -128 0
-106 -128 0
128 107 129 0
-128 -129 0
-107 -129 0
28 76 130 0
-28 -130 0
-76 -130 0
129 130 131 0
-129 -131 0
-130 -131 0
-92 98 132 0
92 -132 0
-98 -132 0
132 99 133 0
-132 -133 0
-99 -133 0
84 90 134 0
-84 -134 0
-90 -134 0
134 91 135 0
-134 -135 0
-91 -135 0
133 135 136 0
-133 -136 0
-135 -136 0
81 83 137 0
-81 -137 0
-83 -137 0
-136 137 138 0
136 -138 0
-137 -138 0
-138 77 139 0
138 -139 0
-77 -139 0
-108 114 140 0
108 -140 0
-114 -140 0
140 115 141 0
-140 -141 0
-115 -141 0
-139 141 142 0
139 -142 0
-141 -142 0
-116 122 143 0
116 -143 0
-122 -143 0
143 123 144 0
-143 -144 0
-123 -144 0
-142 144 145 0
142 -145 0
-144 -145 0
-131 -145 146 0
131 -146 0
145 -146 0
127 -146 147 0
-127 -147 0
146 -147 0
-147 0
